Problem:    guia2_1
Rows:       7
Columns:    5
Non-zeros:  14
Status:     OPTIMAL
Objective:  z = 550 (MAXimum)

   No.   Row name   St   Activity     Lower bound   Upper bound    Marginal
------ ------------ -- ------------- ------------- ------------- -------------
     1 z            B            550                             
     2 prodMaqB     NS             0            -0             =           -15 
     3 maq1         NU            80                          80           2.5 
     4 maq2         NU            80                          80          3.75 
     5 lanaM        NU            20                          20           2.5 
     6 lanaN        B             30                          36 
     7 prodB        B        16.6667            10               

   No. Column name  St   Activity     Lower bound   Upper bound    Marginal
------ ------------ -- ------------- ------------- ------------- -------------
     1 PA           NL             0             0                        -6.5 
     2 PB           B        16.6667             0               
     3 PC           B        16.6667             0               
     4 PB1          B        13.3333             0               
     5 PB2          B        3.33333             0               

Karush-Kuhn-Tucker optimality conditions:

KKT.PE: max.abs.err = 0.00e+00 on row 0
        max.rel.err = 0.00e+00 on row 0
        High quality

KKT.PB: max.abs.err = 0.00e+00 on row 0
        max.rel.err = 0.00e+00 on row 0
        High quality

KKT.DE: max.abs.err = 0.00e+00 on column 0
        max.rel.err = 0.00e+00 on column 0
        High quality

KKT.DB: max.abs.err = 0.00e+00 on row 0
        max.rel.err = 0.00e+00 on row 0
        High quality

End of output
